# Solution for model r3_t9_m2_4 Batch Number: 1
# Finished Task: 7 / 9
# Makespan: 473.0, Total Distance: 243.0, Total Time: 0.2504
# R O S F Batch
0 0 5 0.0 0.0 -1
1 1 -1 0.0 0.0 -1
2 2 8 0.0 0.0 -1
3 2 9 357.0 389.0 0
4 -1 -1 -1.0 -1.0 0
5 0 6 150.0 180.0 0
6 0 11 346.0 376.0 0
7 -1 -1 -1.0 -1.0 0
8 2 10 264.0 291.0 0
9 2 -1 443.0 473.0 0
10 2 3 312.0 335.0 0
11 0 -1 389.0 417.0 0
